NAME : rbg017a.tw.4296.tour
COMMENT : Length = 4296
COMMENT : Found by LKH [Keld Helsgaun] Sun Sep 10 01:17:34 2017
TYPE : TOUR
DIMENSION : 18
TOUR_SECTION
1
2
3
4
5
6
7
8
9
10
11
12
13
14
15
16
17
18
-1
EOF
